certificates/rado_a5_c258_N51.cnf
c Rad2 upper bound instance: x1 + 5*x2 - x3 = 258, interval [1,51]
p cnf 51 510
1 4 51 0
-1 -4 -51 0
2 5 51 0
-2 -5 -51 0
3 6 51 0
-3 -6 -51 0
4 7 51 0
-4 -7 -51 0
5 8 51 0
-5 -8 -51 0
1 9 50 0
-1 -9 -50 0
6 9 51 0
-6 -9 -51 0
2 10 50 0
-2 -10 -50 0
7 10 51 0
-7 -10 -51 0
3 11 50 0
-3 -11 -50 0
8 11 51 0
-8 -11 -51 0
4 12 50 0
-4 -12 -50 0
9 12 51 0
-9 -12 -51 0
5 13 50 0
-5 -13 -50 0
10 13 51 0
-10 -13 -51 0
1 14 49 0
-1 -14 -49 0
6 14 50 0
-6 -14 -50 0
11 14 51 0
-11 -14 -51 0
2 15 49 0
-2 -15 -49 0
7 15 50 0
-7 -15 -50 0
12 15 51 0
-12 -15 -51 0
3 16 49 0
-3 -16 -49 0
8 16 50 0
-8 -16 -50 0
13 16 51 0
-13 -16 -51 0
4 17 49 0
-4 -17 -49 0
9 17 50 0
-9 -17 -50 0
14 17 51 0
-14 -17 -51 0
5 18 49 0
-5 -18 -49 0
10 18 50 0
-10 -18 -50 0
15 18 51 0
-15 -18 -51 0
1 19 48 0
-1 -19 -48 0
6 19 49 0
-6 -19 -49 0
11 19 50 0
-11 -19 -50 0
16 19 51 0
-16 -19 -51 0
2 20 48 0
-2 -20 -48 0
7 20 49 0
-7 -20 -49 0
12 20 50 0
-12 -20 -50 0
17 20 51 0
-17 -20 -51 0
3 21 48 0
-3 -21 -48 0
8 21 49 0
-8 -21 -49 0
13 21 50 0
-13 -21 -50 0
18 21 51 0
-18 -21 -51 0
4 22 48 0
-4 -22 -48 0
9 22 49 0
-9 -22 -49 0
14 22 50 0
-14 -22 -50 0
19 22 51 0
-19 -22 -51 0
5 23 48 0
-5 -23 -48 0
10 23 49 0
-10 -23 -49 0
15 23 50 0
-15 -23 -50 0
20 23 51 0
-20 -23 -51 0
1 24 47 0
-1 -24 -47 0
6 24 48 0
-6 -24 -48 0
11 24 49 0
-11 -24 -49 0
16 24 50 0
-16 -24 -50 0
21 24 51 0
-21 -24 -51 0
2 25 47 0
-2 -25 -47 0
7 25 48 0
-7 -25 -48 0
12 25 49 0
-12 -25 -49 0
17 25 50 0
-17 -25 -50 0
22 25 51 0
-22 -25 -51 0
3 26 47 0
-3 -26 -47 0
8 26 48 0
-8 -26 -48 0
13 26 49 0
-13 -26 -49 0
18 26 50 0
-18 -26 -50 0
23 26 51 0
-23 -26 -51 0
4 27 47 0
-4 -27 -47 0
9 27 48 0
-9 -27 -48 0
14 27 49 0
-14 -27 -49 0
19 27 50 0
-19 -27 -50 0
24 27 51 0
-24 -27 -51 0
5 28 47 0
-5 -28 -47 0
10 28 48 0
-10 -28 -48 0
15 28 49 0
-15 -28 -49 0
20 28 50 0
-20 -28 -50 0
25 28 51 0
-25 -28 -51 0
1 29 46 0
-1 -29 -46 0
6 29 47 0
-6 -29 -47 0
11 29 48 0
-11 -29 -48 0
16 29 49 0
-16 -29 -49 0
21 29 50 0
-21 -29 -50 0
26 29 51 0
-26 -29 -51 0
2 30 46 0
-2 -30 -46 0
7 30 47 0
-7 -30 -47 0
12 30 48 0
-12 -30 -48 0
17 30 49 0
-17 -30 -49 0
22 30 50 0
-22 -30 -50 0
27 30 51 0
-27 -30 -51 0
3 31 46 0
-3 -31 -46 0
8 31 47 0
-8 -31 -47 0
13 31 48 0
-13 -31 -48 0
18 31 49 0
-18 -31 -49 0
23 31 50 0
-23 -31 -50 0
28 31 51 0
-28 -31 -51 0
4 32 46 0
-4 -32 -46 0
9 32 47 0
-9 -32 -47 0
14 32 48 0
-14 -32 -48 0
19 32 49 0
-19 -32 -49 0
24 32 50 0
-24 -32 -50 0
29 32 51 0
-29 -32 -51 0
5 33 46 0
-5 -33 -46 0
10 33 47 0
-10 -33 -47 0
15 33 48 0
-15 -33 -48 0
20 33 49 0
-20 -33 -49 0
25 33 50 0
-25 -33 -50 0
30 33 51 0
-30 -33 -51 0
1 34 45 0
-1 -34 -45 0
6 34 46 0
-6 -34 -46 0
11 34 47 0
-11 -34 -47 0
16 34 48 0
-16 -34 -48 0
21 34 49 0
-21 -34 -49 0
26 34 50 0
-26 -34 -50 0
31 34 51 0
-31 -34 -51 0
2 35 45 0
-2 -35 -45 0
7 35 46 0
-7 -35 -46 0
12 35 47 0
-12 -35 -47 0
17 35 48 0
-17 -35 -48 0
22 35 49 0
-22 -35 -49 0
27 35 50 0
-27 -35 -50 0
32 35 51 0
-32 -35 -51 0
3 36 45 0
-3 -36 -45 0
8 36 46 0
-8 -36 -46 0
13 36 47 0
-13 -36 -47 0
18 36 48 0
-18 -36 -48 0
23 36 49 0
-23 -36 -49 0
28 36 50 0
-28 -36 -50 0
33 36 51 0
-33 -36 -51 0
4 37 45 0
-4 -37 -45 0
9 37 46 0
-9 -37 -46 0
14 37 47 0
-14 -37 -47 0
19 37 48 0
-19 -37 -48 0
24 37 49 0
-24 -37 -49 0
29 37 50 0
-29 -37 -50 0
34 37 51 0
-34 -37 -51 0
5 38 45 0
-5 -38 -45 0
10 38 46 0
-10 -38 -46 0
15 38 47 0
-15 -38 -47 0
20 38 48 0
-20 -38 -48 0
25 38 49 0
-25 -38 -49 0
30 38 50 0
-30 -38 -50 0
35 38 51 0
-35 -38 -51 0
1 39 44 0
-1 -39 -44 0
6 39 45 0
-6 -39 -45 0
11 39 46 0
-11 -39 -46 0
16 39 47 0
-16 -39 -47 0
21 39 48 0
-21 -39 -48 0
26 39 49 0
-26 -39 -49 0
31 39 50 0
-31 -39 -50 0
36 39 51 0
-36 -39 -51 0
2 40 44 0
-2 -40 -44 0
7 40 45 0
-7 -40 -45 0
12 40 46 0
-12 -40 -46 0
17 40 47 0
-17 -40 -47 0
22 40 48 0
-22 -40 -48 0
27 40 49 0
-27 -40 -49 0
32 40 50 0
-32 -40 -50 0
37 40 51 0
-37 -40 -51 0
3 41 44 0
-3 -41 -44 0
8 41 45 0
-8 -41 -45 0
13 41 46 0
-13 -41 -46 0
18 41 47 0
-18 -41 -47 0
23 41 48 0
-23 -41 -48 0
28 41 49 0
-28 -41 -49 0
33 41 50 0
-33 -41 -50 0
38 41 51 0
-38 -41 -51 0
4 42 44 0
-4 -42 -44 0
9 42 45 0
-9 -42 -45 0
14 42 46 0
-14 -42 -46 0
19 42 47 0
-19 -42 -47 0
24 42 48 0
-24 -42 -48 0
29 42 49 0
-29 -42 -49 0
34 42 50 0
-34 -42 -50 0
39 42 51 0
-39 -42 -51 0
5 43 44 0
-5 -43 -44 0
10 43 45 0
-10 -43 -45 0
15 43 46 0
-15 -43 -46 0
20 43 47 0
-20 -43 -47 0
25 43 48 0
-25 -43 -48 0
30 43 49 0
-30 -43 -49 0
35 43 50 0
-35 -43 -50 0
40 43 51 0
-40 -43 -51 0
1 43 44 0
-1 -43 -44 0
6 44 0
-6 -44 0
11 44 45 0
-11 -44 -45 0
16 44 46 0
-16 -44 -46 0
21 44 47 0
-21 -44 -47 0
26 44 48 0
-26 -44 -48 0
31 44 49 0
-31 -44 -49 0
36 44 50 0
-36 -44 -50 0
41 44 51 0
-41 -44 -51 0
2 43 45 0
-2 -43 -45 0
7 44 45 0
-7 -44 -45 0
12 45 0
-12 -45 0
17 45 46 0
-17 -45 -46 0
22 45 47 0
-22 -45 -47 0
27 45 48 0
-27 -45 -48 0
32 45 49 0
-32 -45 -49 0
37 45 50 0
-37 -45 -50 0
42 45 51 0
-42 -45 -51 0
3 43 46 0
-3 -43 -46 0
8 44 46 0
-8 -44 -46 0
13 45 46 0
-13 -45 -46 0
18 46 0
-18 -46 0
23 46 47 0
-23 -46 -47 0
28 46 48 0
-28 -46 -48 0
33 46 49 0
-33 -46 -49 0
38 46 50 0
-38 -46 -50 0
43 46 51 0
-43 -46 -51 0
4 43 47 0
-4 -43 -47 0
9 44 47 0
-9 -44 -47 0
14 45 47 0
-14 -45 -47 0
19 46 47 0
-19 -46 -47 0
24 47 0
-24 -47 0
29 47 48 0
-29 -47 -48 0
34 47 49 0
-34 -47 -49 0
39 47 50 0
-39 -47 -50 0
44 47 51 0
-44 -47 -51 0
5 43 48 0
-5 -43 -48 0
10 44 48 0
-10 -44 -48 0
15 45 48 0
-15 -45 -48 0
20 46 48 0
-20 -46 -48 0
25 47 48 0
-25 -47 -48 0
30 48 0
-30 -48 0
35 48 49 0
-35 -48 -49 0
40 48 50 0
-40 -48 -50 0
45 48 51 0
-45 -48 -51 0
1 42 49 0
-1 -42 -49 0
6 43 49 0
-6 -43 -49 0
11 44 49 0
-11 -44 -49 0
16 45 49 0
-16 -45 -49 0
21 46 49 0
-21 -46 -49 0
26 47 49 0
-26 -47 -49 0
31 48 49 0
-31 -48 -49 0
36 49 0
-36 -49 0
41 49 50 0
-41 -49 -50 0
46 49 51 0
-46 -49 -51 0
2 42 50 0
-2 -42 -50 0
7 43 50 0
-7 -43 -50 0
12 44 50 0
-12 -44 -50 0
17 45 50 0
-17 -45 -50 0
22 46 50 0
-22 -46 -50 0
27 47 50 0
-27 -47 -50 0
32 48 50 0
-32 -48 -50 0
37 49 50 0
-37 -49 -50 0
42 50 0
-42 -50 0
47 50 51 0
-47 -50 -51 0
3 42 51 0
-3 -42 -51 0
8 43 51 0
-8 -43 -51 0
13 44 51 0
-13 -44 -51 0
18 45 51 0
-18 -45 -51 0
23 46 51 0
-23 -46 -51 0
28 47 51 0
-28 -47 -51 0
33 48 51 0
-33 -48 -51 0
38 49 51 0
-38 -49 -51 0
43 50 51 0
-43 -50 -51 0
48 51 0
-48 -51 0
