certificates/rado_a5_c258_N51.drat
-51 0
48 0
-30 0
27 0
33 0
-9 0
-45 0
-15 0
6 0
12 0
42 0
18 0
-24 0
-44 0
-50 0
-36 0
-46 0
16 0
21 0
32 0
47 0
11 0
0
